c Random generated cnf formula, satisfiable: true
p cnf 10 50
-8 6 10 0
10 2 4 0
-5 4 8 0
-10 3 4 0
-9 8 -10 0
-5 3 6 0
-7 6 1 0
10 4 -2 0
1 -3 -8 0
-2 -1 9 0
-10 7 -5 0
4 -5 10 0
9 6 5 0
1 -3 8 0
-7 1 2 0
-9 -8 4 0
1 -3 -9 0
9 3 5 0
6 9 -4 0
1 -3 7 0
5 -9 -3 0
-9 -1 4 0
1 -2 5 0
6 -8 5 0
8 9 4 0
4 2 3 0
10 8 -6 0
-7 1 -3 0
3 10 -9 0
8 9 4 0
-10 6 -7 0
-6 -4 -3 0
2 6 -8 0
-7 -6 -1 0
-3 -1 8 0
-4 7 -10 0
-2 9 -3 0
7 -6 5 0
-9 -8 10 0
5 -9 8 0
6 1 -10 0
-7 -3 -6 0
-9 -8 5 0
2 -1 8 0
1 8 -9 0
4 -3 6 0
-2 -10 8 0
5 -9 3 0
4 7 -9 0
4 -1 -6 0
